1 66.5 60.9
2 21 89.3
3 61.8 57.8
4 26.6 54.6
5 63 63
6 21.8 49.4
7 87.4 31.5
8 47.3 36.8
9 68.4 52.3
10 26.3 52.5
11 19 52.3
12 39.9 15.8
13 61.8 86.1
14 34.7 36.8
15 0 38
16 42 14.3
17 90.3 36.8
18 42 65.6
19 21.8 57.8
20 31.5 36.8
21 36.1 5.3
22 42.8 28.5
23 30.4 31.5
24 36.1 66.5
25 59.9 60.9
26 23.8 36.8
27 7.6 38
28 36.8 28.5
29 4.8 36.8
30 47.3 66.5
